Route #1: 7 3 5 75 2 1 4 6 9 8 10 
Route #2: 11 12 14 16 15 19 18 17 13 
Route #3: 20 24 25 27 29 30 28 26 23 22 21 
Route #4: 32 33 31 35 37 38 39 36 34 
Route #5: 40 41 42 46 44 45 48 51 50 52 49 47 43 
Route #6: 55 54 53 56 58 60 59 57 
Route #7: 63 74 72 61 64 68 66 69 62 65 67 
Route #8: 80 79 77 73 70 71 76 78 81 82 83 84 
Route #9: 90 87 86 85 88 89 91 
Route #10: 98 96 95 94 92 93 97 100 99 
cost 836.036
